p cnf 50 500 
1 25 -49 0
1 -43 29 0
1 24 -2 0
1 41 17 0
1 41 27 0
1 -21 23 0
1 14 22 0
1 -6 -9 0
1 8 -7 0
1 36 5 0
1 -6 -3 0
1 -20 4 0
1 -31 13 0
1 35 -15 0
1 37 -29 0
1 38 -46 0
1 -3 -35 0
1 -39 -46 0
1 -49 33 0
1 -37 40 0
1 2 -5 0
1 -19 43 0
1 -22 43 0
1 39 -20 0
1 -5 -47 0
1 -42 -26 0
1 9 -27 0
1 17 37 0
1 41 31 0
1 24 -39 0
1 32 13 0
1 33 -5 0
1 -1 -41 0
1 -16 17 0
1 44 43 0
1 -29 30 0
1 -11 -33 0
1 -21 43 0
1 6 -30 0
1 -35 -33 0
1 -23 -6 0
1 23 11 0
1 -3 -31 0
1 -11 5 0
1 38 28 0
1 21 -32 0
1 11 -33 0
1 -16 -40 0
1 -46 8 0
1 -19 39 0
1 19 -11 0
1 -16 3 0
1 30 -4 0
1 -35 -21 0
1 -3 40 0
1 29 20 0
1 -28 -33 0
1 22 -27 0
1 37 19 0
1 21 19 0
1 -22 15 0
1 36 -25 0
1 15 -41 0
1 11 -13 0
1 -46 10 0
1 36 1 0
1 20 -26 0
1 -44 29 0
1 44 -41 0
1 16 -22 0
1 13 25 0
1 38 -40 0
1 -50 -45 0
1 45 7 0
1 32 -31 0
1 -10 45 0
1 -35 -12 0
1 -34 -49 0
1 23 2 0
1 -42 -30 0
1 -25 43 0
1 -49 -34 0
1 15 37 0
1 -31 48 0
1 10 -6 0
1 -5 -44 0
1 -45 -8 0
1 -38 30 0
1 -22 4 0
1 37 14 0
1 1 -8 0
1 -5 49 0
1 5 10 0
1 -4 -46 0
1 -3 -23 0
1 2 13 0
1 -16 34 0
1 48 -45 0
1 -2 27 0
1 26 -24 0
1 -34 -26 0
1 -22 26 0
1 48 -20 0
1 32 -17 0
1 -50 -15 0
1 -10 2 0
1 29 23 0
1 -47 -37 0
1 13 -25 0
1 1 -2 0
1 21 -47 0
1 -19 -49 0
1 -48 -35 0
1 -30 3 0
1 -20 33 0
1 18 -29 0
1 -46 -1 0
1 8 -41 0
1 37 18 0
1 -17 3 0
1 38 31 0
1 34 41 0
1 23 -18 0
1 -47 -26 0
1 -27 -25 0
1 15 4 0
1 22 -28 0
1 31 44 0
1 -24 14 0
1 4 -3 0
1 20 19 0
1 44 48 0
1 23 -45 0
1 -48 16 0
1 44 43 0
1 -37 8 0
1 22 25 0
1 27 -28 0
1 46 -17 0
1 15 -20 0
1 15 13 0
1 -29 10 0
1 -3 -39 0
1 -47 35 0
1 -10 -17 0
1 -44 33 0
1 45 28 0
1 -37 -10 0
1 -33 -41 0
1 -22 50 0
1 44 -33 0
1 -32 -25 0
1 -17 24 0
1 6 30 0
1 7 -44 0
1 -3 -44 0
1 -34 21 0
1 20 21 0
1 -4 -23 0
1 -47 31 0
1 4 25 0
1 5 44 0
1 37 -25 0
1 18 48 0
1 18 -1 0
1 22 -1 0
1 -43 11 0
1 -44 5 0
1 29 36 0
1 45 35 0
1 -40 -48 0
1 22 38 0
1 -44 42 0
1 42 -19 0
1 29 1 0
1 -5 -34 0
1 19 15 0
1 -50 -13 0
1 -11 -20 0
1 7 31 0
1 23 48 0
1 -16 -26 0
1 27 -6 0
1 40 8 0
1 23 19 0
1 31 -5 0
1 25 -37 0
1 -18 -28 0
1 25 -49 0
1 -24 -4 0
1 -9 -2 0
1 10 -45 0
1 13 -28 0
1 -33 15 0
1 -2 8 0
1 35 20 0
1 -19 -14 0
1 -17 -35 0
1 37 -22 0
1 -16 -30 0
1 8 -32 0
1 -47 -6 0
1 13 -36 0
1 6 26 0
1 39 7 0
1 -41 -7 0
1 29 -4 0
1 34 -2 0
1 -33 -44 0
1 -49 29 0
1 14 43 0
1 -18 14 0
1 20 8 0
1 -14 -41 0
1 -45 -12 0
1 13 -9 0
1 3 50 0
1 28 -1 0
1 43 19 0
1 33 3 0
1 11 28 0
1 19 1 0
1 -12 4 0
1 13 9 0
1 9 -44 0
1 -44 -26 0
1 -45 -39 0
1 -42 14 0
1 -42 41 0
1 42 43 0
1 -46 15 0
1 24 -47 0
1 41 -37 0
1 13 45 0
1 -34 17 0
1 -31 11 0
1 -1 -2 0
1 -45 -7 0
1 -21 -22 0
1 19 21 0
1 -7 43 0
1 38 13 0
1 -30 8 0
1 -18 21 0
1 23 15 0
1 21 -5 0
1 -26 -6 0
1 26 -9 0
1 1 -45 0
1 7 -26 0
1 -33 3 0
1 24 -28 0
1 42 28 0
1 32 19 0
1 24 -38 0
1 -47 -5 0
1 -49 33 0
1 -9 -44 0
1 -47 37 0
1 14 10 0
1 38 27 0
1 -46 22 0
1 9 29 0
1 33 -50 0
1 -33 -38 0
1 -32 -28 0
1 -15 -24 0
1 -34 12 0
1 -39 -3 0
1 24 -17 0
1 -46 -21 0
1 20 40 0
1 -27 46 0
1 -24 -25 0
1 49 -33 0
1 45 -1 0
1 3 -43 0
1 10 19 0
1 -39 46 0
1 35 41 0
1 37 4 0
1 -29 -5 0
1 38 -15 0
1 16 12 0
1 -5 31 0
1 50 -3 0
1 -48 -50 0
1 -41 -8 0
1 -12 -13 0
1 18 35 0
1 -50 27 0
1 -39 -2 0
1 33 -28 0
1 30 -25 0
1 24 17 0
1 -25 -3 0
1 -16 -28 0
1 -13 44 0
1 -21 24 0
1 26 10 0
1 -37 10 0
1 -34 9 0
1 26 -4 0
1 -6 13 0
1 41 12 0
1 5 -42 0
1 -15 -41 0
1 -50 -37 0
1 46 -36 0
1 -45 46 0
1 49 10 0
1 -22 4 0
1 15 30 0
1 -21 -29 0
1 -19 29 0
1 16 23 0
1 -9 7 0
1 3 28 0
1 37 41 0
1 45 33 0
1 -12 -35 0
1 14 -23 0
1 2 44 0
1 -16 6 0
1 -13 19 0
1 46 -49 0
1 -39 -23 0
1 -5 12 0
1 -47 21 0
1 -44 -18 0
1 12 -43 0
1 49 39 0
1 -7 28 0
1 -27 43 0
1 -15 27 0
1 -39 -41 0
1 -12 35 0
1 -3 37 0
1 -29 -11 0
1 -50 44 0
1 22 -14 0
1 6 44 0
1 -21 12 0
1 -3 26 0
1 11 38 0
1 -24 18 0
1 -29 -19 0
1 -13 -18 0
1 -32 -42 0
1 36 44 0
1 5 47 0
1 22 -8 0
1 -45 39 0
1 6 -22 0
1 41 2 0
1 -20 45 0
1 -37 17 0
1 -10 45 0
1 41 42 0
1 -49 -42 0
1 30 -39 0
1 11 34 0
1 35 31 0
1 25 39 0
1 -5 42 0
1 -36 -11 0
1 -3 50 0
1 -41 33 0
1 22 -6 0
1 -40 25 0
1 -5 -36 0
1 -24 -32 0
1 23 -43 0
1 -21 35 0
1 24 36 0
1 -30 -31 0
1 36 10 0
1 42 -49 0
1 -26 44 0
1 -34 28 0
1 -20 -39 0
1 23 -25 0
1 11 -21 0
1 -1 -30 0
1 -40 -1 0
1 50 -11 0
1 -4 -8 0
1 -35 13 0
1 -2 33 0
1 7 5 0
1 26 -23 0
1 3 -33 0
1 34 -9 0
1 19 30 0
1 37 41 0
1 -4 3 0
1 -35 -22 0
1 27 50 0
1 -22 15 0
1 47 -41 0
1 49 39 0
1 -18 21 0
1 -12 50 0
1 -3 21 0
1 -50 -29 0
1 36 -2 0
1 -29 44 0
1 10 -27 0
1 40 36 0
1 26 -20 0
1 -46 -38 0
1 9 15 0
1 44 -21 0
1 -23 26 0
1 20 -26 0
1 -2 -38 0
1 24 -43 0
1 13 24 0
1 12 3 0
1 -18 28 0
1 -49 33 0
1 9 -19 0
1 44 -42 0
1 -30 35 0
1 27 -38 0
1 -11 27 0
1 -29 -4 0
1 32 -18 0
1 50 47 0
1 -15 24 0
1 15 -44 0
1 -29 39 0
1 -26 -49 0
1 26 43 0
1 47 -49 0
1 16 8 0
1 4 10 0
1 -33 -11 0
1 -5 -28 0
1 -16 -40 0
1 -38 34 0
1 26 35 0
1 -33 -18 0
1 25 -8 0
1 -18 39 0
1 -49 21 0
1 -49 40 0
1 30 25 0
1 -8 -32 0
1 16 -48 0
1 -15 -4 0
1 12 -10 0
1 -48 -14 0
1 34 -27 0
1 -17 -37 0
1 11 1 0
1 32 -43 0
1 -41 6 0
1 -10 40 0
1 -50 -12 0
1 -25 28 0
1 -4 45 0
1 31 -37 0
1 38 29 0
1 22 12 0
1 18 -10 0
1 -50 -11 0
1 -22 -46 0
1 24 -40 0
1 -35 46 0
1 33 14 0
1 -42 16 0
1 28 -5 0
1 15 40 0
1 1 18 0
1 14 -9 0
1 49 -23 0
1 -19 12 0
1 26 3 0
1 -19 -10 0
1 -15 -5 0
1 -44 -12 0
1 30 -6 0
1 -14 34 0
1 -7 45 0
1 -7 -42 0
1 -45 47 0
1 7 30 0
1 34 -1 0
1 12 -43 0
1 -49 37 0
1 21 -16 0
1 11 20 0
1 -12 27 0
1 23 -48 0
1 -28 30 0
1 -31 -50 0
1 -43 -10 0
1 47 19 0
1 -35 -28 0
1 %
1 0
1 
